certificates/rado_a13_c290_N31.cnf
c Rad2 upper bound instance: x1 + 13*x2 - x3 = 290, interval [1,31]
p cnf 31 146
1 10 23 0
-1 -10 -23 0
1 23 24 0
-1 -23 -24 0
2 11 23 0
-2 -11 -23 0
2 24 0
-2 -24 0
3 12 23 0
-3 -12 -23 0
3 24 25 0
-3 -24 -25 0
4 13 23 0
-4 -13 -23 0
4 24 26 0
-4 -24 -26 0
1 5 22 0
-1 -5 -22 0
5 14 23 0
-5 -14 -23 0
5 24 27 0
-5 -24 -27 0
2 6 22 0
-2 -6 -22 0
6 15 23 0
-6 -15 -23 0
6 24 28 0
-6 -24 -28 0
3 7 22 0
-3 -7 -22 0
7 16 23 0
-7 -16 -23 0
7 24 29 0
-7 -24 -29 0
4 8 22 0
-4 -8 -22 0
8 17 23 0
-8 -17 -23 0
8 24 30 0
-8 -24 -30 0
5 9 22 0
-5 -9 -22 0
9 18 23 0
-9 -18 -23 0
9 24 31 0
-9 -24 -31 0
6 10 22 0
-6 -10 -22 0
10 19 23 0
-10 -19 -23 0
7 11 22 0
-7 -11 -22 0
11 20 23 0
-11 -20 -23 0
8 12 22 0
-8 -12 -22 0
12 21 23 0
-12 -21 -23 0
9 13 22 0
-9 -13 -22 0
13 22 23 0
-13 -22 -23 0
10 14 22 0
-10 -14 -22 0
14 23 0
-14 -23 0
11 15 22 0
-11 -15 -22 0
15 23 24 0
-15 -23 -24 0
12 16 22 0
-12 -16 -22 0
16 23 25 0
-16 -23 -25 0
13 17 22 0
-13 -17 -22 0
17 23 26 0
-17 -23 -26 0
1 18 21 0
-1 -18 -21 0
14 18 22 0
-14 -18 -22 0
18 23 27 0
-18 -23 -27 0
2 19 21 0
-2 -19 -21 0
15 19 22 0
-15 -19 -22 0
19 23 28 0
-19 -23 -28 0
3 20 21 0
-3 -20 -21 0
16 20 22 0
-16 -20 -22 0
20 23 29 0
-20 -23 -29 0
4 21 0
-4 -21 0
17 21 22 0
-17 -21 -22 0
21 23 30 0
-21 -23 -30 0
5 21 22 0
-5 -21 -22 0
18 22 0
-18 -22 0
22 23 31 0
-22 -23 -31 0
6 21 23 0
-6 -21 -23 0
19 22 23 0
-19 -22 -23 0
7 21 24 0
-7 -21 -24 0
20 22 24 0
-20 -22 -24 0
8 21 25 0
-8 -21 -25 0
21 22 25 0
-21 -22 -25 0
9 21 26 0
-9 -21 -26 0
22 26 0
-22 -26 0
10 21 27 0
-10 -21 -27 0
22 23 27 0
-22 -23 -27 0
11 21 28 0
-11 -21 -28 0
22 24 28 0
-22 -24 -28 0
12 21 29 0
-12 -21 -29 0
22 25 29 0
-22 -25 -29 0
13 21 30 0
-13 -21 -30 0
22 26 30 0
-22 -26 -30 0
1 20 31 0
-1 -20 -31 0
14 21 31 0
-14 -21 -31 0
22 27 31 0
-22 -27 -31 0
