certificates/rado_a13_c290_N31.drat
-27 -31 0
d -27 -22 -31 0
-26 -30 27 0
-22 -31 0
-31 0
27 0
26 0
-22 0
18 0
23 0
0
